7005277521065681464509,4,1,2,013,14,1,2,09,8,1,2,012,2,1,2,013,5,1,2,011,14,1,2,013,1,1,2,08,7,1,2,06,10,1,2,01,9,1,2,01,7,1,2,06,4,1,2,08,9,1,2,014,6,1,2,02,10,1,2,010,13,1,2,010,12,1,2,08,11,1,2,06,13,1,2,04,2,1,2,01,13,1,2,013,12,1,2,08,14,1,2,03,2,1,2,02,1,1,2,07,15,1,2,06,5,1,2,07,2,1,2,07,1,1,2,014,11,1,2,02,1,1,2,015,3,1,2,02,2,1,2,011,3,1,2,07,9,1,2,05,10,1,2,02,2,1,2,02,1,1,2,06,15,1,2,09,13,1,2,06,7,1,2,012,1,1,2,08,8,1,2,03,7,1,2,012,11,1,2,03,1,1,2,01,7,1,2,01,7,1,2,08,2,1,2,014,4,1,2,0